(set-logic ALL)
(declare-fun var0 () String)
(assert (str.in_re var0 (re.++ (re.* (re.+ (str.to_re "00"))) (re.++ (re.* (re.union (str.to_re "1") (str.to_re "222"))) (re.++ (re.union (re.* (str.to_re "3")) (re.* (str.to_re "4"))) (re.++ (re.union (re.+ (str.to_re "55")) (re.+ (str.to_re "66"))) (re.++ (re.union (re.* (str.to_re "777")) (re.* (str.to_re "888"))) (re.++ (re.+ (re.* (str.to_re "9"))) (re.++ (re.* (re.union (str.to_re "aa") (str.to_re "bbb"))) (re.union (re.union (str.to_re "ccc") (str.to_re "d")) (re.union (str.to_re "eee") (str.to_re "f"))))))))))))
(check-sat)